(set-logic UF)
(declare-sort S1 0)
(declare-sort S2 0)
(declare-sort S3 0)
(declare-sort S4 0)
(declare-sort S5 0)
(declare-sort S6 0)
(declare-sort S7 0)
(declare-sort S8 0)
(declare-sort S9 0)
(declare-sort S10 0)
(declare-sort S11 0)
(declare-sort S12 0)
(declare-sort S13 0)
(declare-sort S14 0)
(declare-sort S15 0)
(declare-sort S16 0)
(declare-sort S17 0)
(declare-sort S18 0)
(declare-sort S19 0)
(declare-sort S20 0)
(declare-sort S21 0)
(declare-sort S22 0)
(declare-sort S23 0)
(declare-sort S24 0)
(declare-sort S25 0)
(declare-sort S26 0)
(declare-sort S27 0)
(declare-sort S28 0)
(declare-sort S29 0)
(declare-sort S30 0)
(declare-sort S31 0)
(declare-sort S32 0)
(declare-sort S33 0)
(declare-sort S34 0)
(declare-sort S35 0)
(declare-sort S36 0)
(declare-sort S37 0)
(declare-sort S38 0)
(declare-sort S39 0)
(declare-sort S40 0)
(declare-sort S41 0)
(declare-sort S42 0)
(declare-sort S43 0)
(declare-sort S44 0)
(declare-sort S45 0)
(declare-sort S46 0)
(declare-sort S47 0)
(declare-sort S48 0)
(declare-sort S49 0)
(declare-sort S50 0)
(declare-sort S51 0)
(declare-sort S52 0)
(declare-sort S53 0)
(declare-sort S54 0)
(declare-sort S55 0)
(declare-sort S56 0)
(declare-sort S57 0)
(declare-sort S58 0)
(declare-sort S59 0)
(declare-sort S60 0)
(declare-sort S61 0)
(declare-sort S62 0)
(declare-sort S63 0)
(declare-sort S64 0)
(declare-sort S65 0)
(declare-sort S66 0)
(declare-sort S67 0)
(declare-sort S68 0)
(declare-sort S69 0)
(declare-sort S70 0)
(declare-sort S71 0)
(declare-sort S72 0)
(declare-sort S73 0)
(declare-sort S74 0)
(declare-sort S75 0)
(declare-sort S76 0)
(declare-sort S77 0)
(declare-sort S78 0)
(declare-sort S79 0)
(declare-sort S80 0)
(declare-sort S81 0)
(declare-sort S82 0)
(declare-sort S83 0)
(declare-sort S84 0)
(declare-sort S85 0)
(declare-sort S86 0)
(declare-sort S87 0)
(declare-sort S88 0)
(declare-sort S89 0)
(declare-sort S90 0)
(declare-sort S91 0)
(declare-sort S92 0)
(declare-sort S93 0)
(declare-sort S94 0)
(declare-sort S95 0)
(declare-sort S96 0)
(declare-sort S97 0)
(declare-sort S98 0)
(declare-sort S99 0)
(declare-sort S100 0)
(declare-sort S101 0)
(declare-sort S102 0)
(declare-sort S103 0)
(declare-sort S104 0)
(declare-sort S105 0)
(declare-sort S106 0)
(declare-sort S107 0)
(declare-sort S108 0)
(declare-sort S109 0)
(declare-sort S110 0)
(declare-sort S111 0)
(declare-sort S112 0)
(declare-sort S113 0)
(declare-sort S114 0)
(declare-sort S115 0)
(declare-sort S116 0)
(declare-sort S117 0)
(declare-sort S118 0)
(declare-sort S119 0)
(declare-sort S120 0)
(declare-sort S121 0)
(declare-sort S122 0)
(declare-sort S123 0)
(declare-sort S124 0)
(declare-sort S125 0)
(declare-sort S126 0)
(declare-sort S127 0)
(declare-sort S128 0)
(declare-sort S129 0)
(declare-sort S130 0)
(declare-sort S131 0)
(declare-sort S132 0)
(declare-sort S133 0)
(declare-sort S134 0)
(declare-sort S135 0)
(declare-sort S136 0)
(declare-sort S137 0)
(declare-sort S138 0)
(declare-sort S139 0)
(declare-sort S140 0)
(declare-sort S141 0)
(declare-sort S142 0)
(declare-sort S143 0)
(declare-sort S144 0)
(declare-sort S145 0)
(declare-sort S146 0)
(declare-sort S147 0)
(declare-sort S148 0)
(declare-sort S149 0)
(declare-sort S150 0)
(declare-sort S151 0)
(declare-sort S152 0)
(declare-sort S153 0)
(declare-sort S154 0)
(declare-sort S155 0)
(declare-sort S156 0)
(declare-sort S157 0)
(declare-sort S158 0)
(declare-sort S159 0)
(declare-sort S160 0)
(declare-sort S161 0)
(declare-sort S162 0)
(declare-sort S163 0)
(declare-sort S164 0)
(declare-sort S165 0)
(declare-sort S166 0)
(declare-sort S167 0)
(declare-sort S168 0)
(declare-sort S169 0)
(declare-sort S170 0)
(declare-sort S171 0)
(declare-sort S172 0)
(declare-sort S173 0)
(declare-sort S174 0)
(declare-sort S175 0)
(declare-sort S176 0)
(declare-sort S177 0)
(declare-sort S178 0)
(declare-sort S179 0)
(declare-sort S180 0)
(declare-sort S181 0)
(declare-sort S182 0)
(declare-sort S183 0)
(declare-sort S184 0)
(declare-sort S185 0)
(declare-sort S186 0)
(declare-sort S187 0)
(declare-sort S188 0)
(declare-sort S189 0)
(declare-sort S190 0)
(declare-sort S191 0)
(declare-sort S192 0)
(declare-sort S193 0)
(declare-sort S194 0)
(declare-sort S195 0)
(declare-sort S196 0)
(declare-sort S197 0)
(declare-sort S198 0)
(declare-sort S199 0)
(declare-sort S200 0)
(declare-sort S201 0)
(declare-sort S202 0)
(declare-sort S203 0)
(declare-sort S204 0)
(declare-sort S205 0)
(declare-sort S206 0)
(declare-sort S207 0)
(declare-sort S208 0)
(declare-sort S209 0)
(declare-sort S210 0)
(declare-sort S211 0)
(declare-sort S212 0)
(declare-sort S213 0)
(declare-sort S214 0)
(declare-sort S215 0)
(declare-sort S216 0)
(declare-sort S217 0)
(declare-sort S218 0)
(declare-sort S219 0)
(declare-sort S220 0)
(declare-sort S221 0)
(declare-sort S222 0)
(declare-sort S223 0)
(declare-sort S224 0)
(declare-sort S225 0)
(declare-sort S226 0)
(declare-sort S227 0)
(declare-sort S228 0)
(declare-sort S229 0)
(declare-sort S230 0)
(declare-sort S231 0)
(declare-sort S232 0)
(declare-sort S233 0)
(declare-sort S234 0)
(declare-sort S235 0)
(declare-fun f1 () S1)
(declare-fun f2 () S1)
(declare-fun f3 (S3 S2) S2)
(declare-fun f4 () S3)
(declare-fun f5 (S4 S5) S2)
(declare-fun f6 (S6 S2) S4)
(declare-fun f7 (S7 S2) S6)
(declare-fun f8 () S7)
(declare-fun f9 () S2)
(declare-fun f10 () S5)
(declare-fun f11 (S8 S2) S1)
(declare-fun f12 () S8)
(declare-fun f13 (S11 S10) S1)
(declare-fun f14 (S12 S2) S11)
(declare-fun f15 (S13 S9) S12)
(declare-fun f16 () S13)
(declare-fun f17 (S14 S10) S9)
(declare-fun f18 (S15 S5) S14)
(declare-fun f19 (S16 S9) S15)
(declare-fun f20 () S16)
(declare-fun f21 () S10)
(declare-fun f22 () S8)
(declare-fun f23 () S9)
(declare-fun f24 () S8)
(declare-fun f25 () S3)
(declare-fun f26 () S6)
(declare-fun f27 () S5)
(declare-fun f28 () S8)
(declare-fun f29 () S8)
(declare-fun f30 (S17 S5) S1)
(declare-fun f31 (S18 S17) S17)
(declare-fun f32 () S18)
(declare-fun f33 (S19 S17) S1)
(declare-fun f34 (S20 S5) S19)
(declare-fun f35 () S20)
(declare-fun f36 (S21 S5) S5)
(declare-fun f37 () S21)
(declare-fun f38 (S24 S23) S23)
(declare-fun f39 (S25 S22) S24)
(declare-fun f40 () S25)
(declare-fun f41 (S26 S23) S24)
(declare-fun f42 () S26)
(declare-fun f43 () S25)
(declare-fun f44 () S23)
(declare-fun f45 (S28 S27) S27)
(declare-fun f46 (S29 S10) S28)
(declare-fun f47 () S29)
(declare-fun f48 (S30 S27) S28)
(declare-fun f49 () S30)
(declare-fun f50 () S29)
(declare-fun f51 () S27)
(declare-fun f52 (S32 S31) S31)
(declare-fun f53 (S33 S23) S32)
(declare-fun f54 () S33)
(declare-fun f55 (S34 S31) S32)
(declare-fun f56 () S34)
(declare-fun f57 () S33)
(declare-fun f58 () S31)
(declare-fun f59 (S36 S35) S35)
(declare-fun f60 (S37 S2) S36)
(declare-fun f61 () S37)
(declare-fun f62 (S38 S35) S36)
(declare-fun f63 () S38)
(declare-fun f64 () S37)
(declare-fun f65 () S35)
(declare-fun f66 (S39 S5) S3)
(declare-fun f67 () S39)
(declare-fun f68 (S40 S9) S8)
(declare-fun f69 () S40)
(declare-fun f70 (S41 S2) S39)
(declare-fun f71 () S41)
(declare-fun f72 (S42 S22) S1)
(declare-fun f73 (S43 S42) S42)
(declare-fun f74 (S44 S42) S43)
(declare-fun f75 () S44)
(declare-fun f76 (S45 S11) S11)
(declare-fun f77 (S46 S11) S45)
(declare-fun f78 () S46)
(declare-fun f79 (S47 S23) S1)
(declare-fun f80 (S48 S47) S47)
(declare-fun f81 (S49 S47) S48)
(declare-fun f82 () S49)
(declare-fun f83 (S50 S8) S8)
(declare-fun f84 (S51 S8) S50)
(declare-fun f85 () S51)
(declare-fun f86 (S52 S42) S48)
(declare-fun f87 () S52)
(declare-fun f88 (S53 S42) S1)
(declare-fun f89 (S54 S22) S53)
(declare-fun f90 () S54)
(declare-fun f91 (S55 S47) S1)
(declare-fun f92 (S56 S23) S55)
(declare-fun f93 () S56)
(declare-fun f94 (S57 S27) S1)
(declare-fun f95 (S58 S57) S57)
(declare-fun f96 (S59 S11) S58)
(declare-fun f97 () S59)
(declare-fun f98 (S60 S11) S1)
(declare-fun f99 (S61 S10) S60)
(declare-fun f100 () S61)
(declare-fun f101 (S62 S57) S1)
(declare-fun f102 (S63 S27) S62)
(declare-fun f103 () S63)
(declare-fun f104 (S64 S31) S1)
(declare-fun f105 (S65 S64) S64)
(declare-fun f106 (S66 S47) S65)
(declare-fun f107 () S66)
(declare-fun f108 (S67 S64) S1)
(declare-fun f109 (S68 S31) S67)
(declare-fun f110 () S68)
(declare-fun f111 (S69 S70) S1)
(declare-fun f112 (S71 S69) S69)
(declare-fun f113 (S72 S57) S71)
(declare-fun f114 () S72)
(declare-fun f115 (S73 S70) S70)
(declare-fun f116 (S74 S27) S73)
(declare-fun f117 () S74)
(declare-fun f118 (S75 S69) S1)
(declare-fun f119 (S76 S70) S75)
(declare-fun f120 () S76)
(declare-fun f121 (S77 S78) S1)
(declare-fun f122 (S79 S77) S77)
(declare-fun f123 (S80 S64) S79)
(declare-fun f124 () S80)
(declare-fun f125 (S81 S78) S78)
(declare-fun f126 (S82 S31) S81)
(declare-fun f127 () S82)
(declare-fun f128 (S83 S77) S1)
(declare-fun f129 (S84 S78) S83)
(declare-fun f130 () S84)
(declare-fun f131 (S86 S87) S1)
(declare-fun f132 (S88 S86) S86)
(declare-fun f133 (S89 S85) S88)
(declare-fun f134 () S89)
(declare-fun f135 (S90 S87) S87)
(declare-fun f136 (S91 S35) S90)
(declare-fun f137 () S91)
(declare-fun f138 (S92 S85) S1)
(declare-fun f139 (S93 S35) S92)
(declare-fun f140 () S93)
(declare-fun f141 (S94 S86) S1)
(declare-fun f142 (S95 S87) S94)
(declare-fun f143 () S95)
(declare-fun f144 (S97 S98) S1)
(declare-fun f145 (S99 S97) S97)
(declare-fun f146 (S100 S96) S99)
(declare-fun f147 () S100)
(declare-fun f148 (S102 S98) S98)
(declare-fun f149 (S103 S101) S102)
(declare-fun f150 () S103)
(declare-fun f151 (S104 S96) S1)
(declare-fun f152 (S105 S101) S104)
(declare-fun f153 () S105)
(declare-fun f154 (S106 S97) S1)
(declare-fun f155 (S107 S98) S106)
(declare-fun f156 () S107)
(declare-fun f157 (S85 S35) S1)
(declare-fun f158 (S108 S85) S85)
(declare-fun f159 (S109 S8) S108)
(declare-fun f160 () S109)
(declare-fun f161 (S110 S8) S1)
(declare-fun f162 (S111 S2) S110)
(declare-fun f163 () S111)
(declare-fun f164 (S96 S101) S1)
(declare-fun f165 (S112 S96) S96)
(declare-fun f166 (S113 S17) S112)
(declare-fun f167 () S113)
(declare-fun f168 (S114 S101) S101)
(declare-fun f169 (S115 S5) S114)
(declare-fun f170 () S115)
(declare-fun f171 (S116 S10) S57)
(declare-fun f172 (S117 S35) S116)
(declare-fun f173 (S118 S2) S117)
(declare-fun f174 (S119 S9) S118)
(declare-fun f175 () S119)
(declare-fun f176 (S120 S35) S57)
(declare-fun f177 (S121 S9) S120)
(declare-fun f178 () S121)
(declare-fun f179 () S3)
(declare-fun f180 (S122 S10) S10)
(declare-fun f181 (S123 S27) S122)
(declare-fun f182 (S124 S125) S123)
(declare-fun f183 () S124)
(declare-fun f184 () S125)
(declare-fun f185 () S27)
(declare-fun f186 () S10)
(declare-fun f187 () S4)
(declare-fun f188 () S2)
(declare-fun f189 (S9 S5) S10)
(declare-fun f190 (S125 S10) S122)
(declare-fun f191 () S10)
(declare-fun f192 () S5)
(declare-fun f193 () S2)
(declare-fun f194 () S3)
(declare-fun f195 () S2)
(declare-fun f196 (S126 S2) S3)
(declare-fun f197 () S126)
(declare-fun f198 () S35)
(declare-fun f199 (S127 S35) S2)
(declare-fun f200 (S128 S2) S127)
(declare-fun f201 (S129 S126) S128)
(declare-fun f202 () S129)
(declare-fun f203 () S35)
(declare-fun f204 (S131 S101) S21)
(declare-fun f205 (S132 S130) S131)
(declare-fun f206 () S132)
(declare-fun f207 (S130 S5) S21)
(declare-fun f208 (S136 S134) S134)
(declare-fun f209 (S137 S135) S136)
(declare-fun f210 (S138 S133) S137)
(declare-fun f211 () S138)
(declare-fun f212 (S139 S135) S135)
(declare-fun f213 (S140 S134) S139)
(declare-fun f214 () S140)
(declare-fun f215 (S133 S134) S136)
(declare-fun f216 (S141 S101) S5)
(declare-fun f217 (S142 S5) S141)
(declare-fun f218 (S143 S130) S142)
(declare-fun f219 () S143)
(declare-fun f220 (S144 S135) S134)
(declare-fun f221 (S145 S134) S144)
(declare-fun f222 (S146 S133) S145)
(declare-fun f223 () S146)
(declare-fun f224 (S147 S8) S85)
(declare-fun f225 () S147)
(declare-fun f226 () S9)
(declare-fun f227 () S5)
(declare-fun f228 () S10)
(declare-fun f229 (S148 S2) S8)
(declare-fun f230 () S148)
(declare-fun f231 (S149 S2) S5)
(declare-fun f232 () S149)
(declare-fun f233 (S150 S3) S36)
(declare-fun f234 () S150)
(declare-fun f235 () S112)
(declare-fun f236 () S58)
(declare-fun f237 () S48)
(declare-fun f238 () S65)
(declare-fun f239 () S108)
(declare-fun f240 () S18)
(declare-fun f241 (S151 S35) S101)
(declare-fun f242 (S152 S149) S151)
(declare-fun f243 () S152)
(declare-fun f244 (S154 S31) S101)
(declare-fun f245 (S155 S153) S154)
(declare-fun f246 () S155)
(declare-fun f247 (S153 S23) S5)
(declare-fun f248 (S157 S23) S101)
(declare-fun f249 (S158 S156) S157)
(declare-fun f250 () S158)
(declare-fun f251 (S156 S22) S5)
(declare-fun f252 (S160 S27) S101)
(declare-fun f253 (S161 S159) S160)
(declare-fun f254 () S161)
(declare-fun f255 (S159 S10) S5)
(declare-fun f256 (S162 S101) S35)
(declare-fun f257 (S163 S4) S162)
(declare-fun f258 () S163)
(declare-fun f259 (S165 S101) S31)
(declare-fun f260 (S166 S164) S165)
(declare-fun f261 () S166)
(declare-fun f262 (S164 S5) S23)
(declare-fun f263 (S168 S101) S23)
(declare-fun f264 (S169 S167) S168)
(declare-fun f265 () S169)
(declare-fun f266 (S167 S5) S22)
(declare-fun f267 (S170 S101) S27)
(declare-fun f268 (S171 S9) S170)
(declare-fun f269 () S171)
(declare-fun f270 (S172 S11) S57)
(declare-fun f271 () S172)
(declare-fun f272 (S173 S47) S64)
(declare-fun f273 () S173)
(declare-fun f274 (S174 S42) S47)
(declare-fun f275 () S174)
(declare-fun f276 (S175 S116) S57)
(declare-fun f277 (S176 S1) S175)
(declare-fun f278 () S176)
(declare-fun f279 (S177 S37) S36)
(declare-fun f280 (S178 S35) S177)
(declare-fun f281 () S178)
(declare-fun f282 (S179 S33) S32)
(declare-fun f283 (S180 S31) S179)
(declare-fun f284 () S180)
(declare-fun f285 (S181 S25) S24)
(declare-fun f286 (S182 S23) S181)
(declare-fun f287 () S182)
(declare-fun f288 (S183 S29) S28)
(declare-fun f289 (S184 S27) S183)
(declare-fun f290 () S184)
(declare-fun f291 () S100)
(declare-fun f292 () S99)
(declare-fun f293 () S72)
(declare-fun f294 () S71)
(declare-fun f295 () S80)
(declare-fun f296 () S79)
(declare-fun f297 () S89)
(declare-fun f298 () S88)
(declare-fun f299 () S109)
(declare-fun f300 () S66)
(declare-fun f301 () S52)
(declare-fun f302 () S59)
(declare-fun f303 () S113)
(declare-fun f304 (S185 S35) S85)
(declare-fun f305 (S186 S148) S185)
(declare-fun f306 () S186)
(declare-fun f307 (S188 S101) S96)
(declare-fun f308 (S189 S187) S188)
(declare-fun f309 () S189)
(declare-fun f310 (S187 S5) S17)
(declare-fun f311 (S191 S31) S64)
(declare-fun f312 (S192 S190) S191)
(declare-fun f313 () S192)
(declare-fun f314 (S190 S23) S47)
(declare-fun f315 (S194 S193) S190)
(declare-fun f316 () S194)
(declare-fun f317 (S193 S22) S42)
(declare-fun f318 (S196 S27) S57)
(declare-fun f319 (S197 S195) S196)
(declare-fun f320 () S197)
(declare-fun f321 (S195 S10) S11)
(declare-fun f322 (S199 S198) S198)
(declare-fun f323 (S200 S17) S199)
(declare-fun f324 () S200)
(declare-fun f325 (S201 S198) S96)
(declare-fun f326 () S201)
(declare-fun f327 (S203 S202) S202)
(declare-fun f328 (S204 S11) S203)
(declare-fun f329 () S204)
(declare-fun f330 (S205 S202) S57)
(declare-fun f331 () S205)
(declare-fun f332 (S207 S206) S206)
(declare-fun f333 (S208 S42) S207)
(declare-fun f334 () S208)
(declare-fun f335 (S209 S206) S47)
(declare-fun f336 () S209)
(declare-fun f337 (S211 S210) S210)
(declare-fun f338 (S212 S47) S211)
(declare-fun f339 () S212)
(declare-fun f340 (S213 S210) S64)
(declare-fun f341 () S213)
(declare-fun f342 (S215 S214) S214)
(declare-fun f343 (S216 S8) S215)
(declare-fun f344 () S216)
(declare-fun f345 (S217 S214) S85)
(declare-fun f346 () S217)
(declare-fun f347 (S218 S101) S114)
(declare-fun f348 () S218)
(declare-fun f349 () S7)
(declare-fun f350 (S219 S135) S139)
(declare-fun f351 () S219)
(declare-fun f352 (S220 S5) S6)
(declare-fun f353 () S220)
(declare-fun f354 () S9)
(declare-fun f355 () S159)
(declare-fun f356 () S159)
(declare-fun f357 () S149)
(declare-fun f358 () S28)
(declare-fun f359 () S36)
(declare-fun f360 () S32)
(declare-fun f361 () S24)
(declare-fun f362 () S30)
(declare-fun f363 () S38)
(declare-fun f364 () S34)
(declare-fun f365 () S26)
(declare-fun f366 (S221 S17) S27)
(declare-fun f367 (S222 S27) S221)
(declare-fun f368 () S222)
(declare-fun f369 (S223 S17) S35)
(declare-fun f370 (S224 S35) S223)
(declare-fun f371 () S224)
(declare-fun f372 (S225 S17) S31)
(declare-fun f373 (S226 S31) S225)
(declare-fun f374 () S226)
(declare-fun f375 (S227 S17) S23)
(declare-fun f376 (S228 S23) S227)
(declare-fun f377 () S228)
(declare-fun f378 () S29)
(declare-fun f379 () S37)
(declare-fun f380 () S33)
(declare-fun f381 () S25)
(declare-fun f382 () S130)
(declare-fun f383 () S133)
(declare-fun f384 () S134)
(declare-fun f385 (S229 S27) S5)
(declare-fun f386 (S230 S159) S229)
(declare-fun f387 () S230)
(declare-fun f388 (S231 S156) S153)
(declare-fun f389 () S231)
(declare-fun f390 (S232 S31) S5)
(declare-fun f391 (S233 S153) S232)
(declare-fun f392 () S233)
(declare-fun f393 (S234 S35) S5)
(declare-fun f394 (S235 S149) S234)
(declare-fun f395 () S235)
(assert (not (= (forall ((?v0 S9) (?v1 S5)) (= f1 (f13 (f14 (f15 f16 ?v0) (f5 f187 ?v1)) (f189 ?v0 ?v1)))) (forall ((?v0 S9) (?v1 S5)) (= (f11 f22 f188) (f13 (f14 (f15 f16 ?v0) (f5 f187 ?v1)) (f189 ?v0 ?v1)))))))
(assert (= (f11 f22 f188) f1))
(check-sat)
(exit)
